1 20 20 1 18 18 2 5 8 20 16 12 
7 20 11 15 12 18 8 3 1 19 19 14 
19 4 19 5 1 8 14 18 8 10 15 19 
14 5 19 10 6 18 5 19 19 4 1 6 
1 14 10 16 13 17 12 19 12 3 14 2 
1 8 19 2 1 7 5 13 11 13 3 5 
19 10 3 16 2 8 10 9 15 20 1 14 
5 5 5 7 8 15 10 13 9 16 15 15 
12 3 2 9 15 15 7 8 20 8 10 4 
16 7 1 10 3 13 8 3 9 13 19 18 
13 14 12 8 20 20 12 17 19 9 16 16 
8 2 9 2 8 9 4 16 17 7 2 12 
